<instance format="XCSP3" type="CSP">
  <variables>
    <array id="x" size="[169]"> 0..12 </array>
  </variables>
  <constraints>
    <group>
      <extension>
        <list> %0 %1 </list>
        <conflicts> (0,0)(1,1)(2,2)(3,3)(4,4)(5,5)(6,6)(7,7)(8,8)(9,9)(10,10)(11,11)(12,12) </conflicts>
      </extension>
      <args> x[0] x[126] </args>
      <args> x[0] x[16] </args>
      <args> x[0] x[165] </args>
      <args> x[0] x[64] </args>
      <args> x[130] x[1] </args>
      <args> x[10] x[111] </args>
      <args> x[10] x[123] </args>
      <args> x[10] x[20] </args>
      <args> x[101] x[110] </args>
      <args> x[101] x[129] </args>
      <args> x[102] x[127] </args>
      <args> x[102] x[50] </args>
      <args> x[103] x[146] </args>
      <args> x[103] x[156] </args>
      <args> x[103] x[167] </args>
      <args> x[103] x[44] </args>
      <args> x[103] x[46] </args>
      <args> x[103] x[60] </args>
      <args> x[103] x[78] </args>
      <args> x[103] x[96] </args>
      <args> x[104] x[119] </args>
      <args> x[104] x[127] </args>
      <args> x[104] x[29] </args>
      <args> x[105] x[122] </args>
      <args> x[105] x[125] </args>
      <args> x[105] x[134] </args>
      <args> x[105] x[19] </args>
      <args> x[105] x[32] </args>
      <args> x[106] x[115] </args>
      <args> x[106] x[40] </args>
      <args> x[106] x[73] </args>
      <args> x[107] x[1] </args>
      <args> x[107] x[112] </args>
      <args> x[107] x[130] </args>
      <args> x[106] x[108] </args>
      <args> x[108] x[115] </args>
      <args> x[108] x[15] </args>
      <args> x[108] x[152] </args>
      <args> x[108] x[158] </args>
      <args> x[108] x[73] </args>
      <args> x[108] x[9] </args>
      <args> x[109] x[129] </args>
      <args> x[109] x[42] </args>
      <args> x[109] x[80] </args>
      <args> x[112] x[11] </args>
      <args> x[110] x[42] </args>
      <args> x[110] x[80] </args>
      <args> x[110] x[98] </args>
      <args> x[112] x[139] </args>
      <args> x[113] x[11] </args>
      <args> x[113] x[130] </args>
      <args> x[113] x[139] </args>
      <args> x[113] x[143] </args>
      <args> x[113] x[162] </args>
      <args> x[113] x[5] </args>
      <args> x[114] x[22] </args>
      <args> x[114] x[33] </args>
      <args> x[114] x[85] </args>
      <args> x[116] x[135] </args>
      <args> x[116] x[149] </args>
      <args> x[116] x[90] </args>
      <args> x[101] x[117] </args>
      <args> x[117] x[129] </args>
      <args> x[117] x[80] </args>
      <args> x[118] x[153] </args>
      <args> x[118] x[30] </args>
      <args> x[118] x[33] </args>
      <args> x[118] x[35] </args>
      <args> x[118] x[36] </args>
      <args> x[119] x[127] </args>
      <args> x[127] x[12] </args>
      <args> x[0] x[121] </args>
      <args> x[121] x[126] </args>
      <args> x[121] x[16] </args>
      <args> x[121] x[165] </args>
      <args> x[121] x[75] </args>
      <args> x[120] x[122] </args>
      <args> x[122] x[134] </args>
      <args> x[122] x[142] </args>
      <args> x[122] x[19] </args>
      <args> x[100] x[123] </args>
      <args> x[111] x[123] </args>
      <args> x[123] x[20] </args>
      <args> x[124] x[153] </args>
      <args> x[124] x[22] </args>
      <args> x[124] x[30] </args>
      <args> x[124] x[33] </args>
      <args> x[124] x[35] </args>
      <args> x[124] x[62] </args>
      <args> x[125] x[142] </args>
      <args> x[125] x[159] </args>
      <args> x[125] x[32] </args>
      <args> x[128] x[12] </args>
      <args> x[128] x[13] </args>
      <args> x[128] x[145] </args>
      <args> x[128] x[29] </args>
      <args> x[128] x[50] </args>
      <args> x[110] x[129] </args>
      <args> x[129] x[98] </args>
      <args> x[104] x[13] </args>
      <args> x[119] x[13] </args>
      <args> x[12] x[13] </args>
      <args> x[13] x[29] </args>
      <args> x[112] x[130] </args>
      <args> x[131] x[135] </args>
      <args> x[131] x[86] </args>
      <args> x[132] x[20] </args>
      <args> x[132] x[87] </args>
      <args> x[133] x[161] </args>
      <args> x[120] x[134] </args>
      <args> x[134] x[142] </args>
      <args> x[135] x[24] </args>
      <args> x[135] x[45] </args>
      <args> x[136] x[161] </args>
      <args> x[136] x[2] </args>
      <args> x[136] x[34] </args>
      <args> x[136] x[66] </args>
      <args> x[136] x[72] </args>
      <args> x[136] x[88] </args>
      <args> x[137] x[156] </args>
      <args> x[137] x[157] </args>
      <args> x[137] x[167] </args>
      <args> x[137] x[60] </args>
      <args> x[137] x[78] </args>
      <args> x[115] x[138] </args>
      <args> x[138] x[73] </args>
      <args> x[14] x[26] </args>
      <args> x[14] x[41] </args>
      <args> x[14] x[68] </args>
      <args> x[100] x[140] </args>
      <args> x[123] x[140] </args>
      <args> x[132] x[140] </args>
      <args> x[140] x[154] </args>
      <args> x[140] x[27] </args>
      <args> x[140] x[39] </args>
      <args> x[140] x[71] </args>
      <args> x[140] x[87] </args>
      <args> x[141] x[14] </args>
      <args> x[141] x[26] </args>
      <args> x[141] x[68] </args>
      <args> x[141] x[97] </args>
      <args> x[107] x[143] </args>
      <args> x[130] x[143] </args>
      <args> x[144] x[168] </args>
      <args> x[144] x[17] </args>
      <args> x[144] x[21] </args>
      <args> x[144] x[28] </args>
      <args> x[144] x[47] </args>
      <args> x[144] x[51] </args>
      <args> x[144] x[70] </args>
      <args> x[102] x[145] </args>
      <args> x[119] x[145] </args>
      <args> x[127] x[145] </args>
      <args> x[145] x[29] </args>
      <args> x[145] x[50] </args>
      <args> x[146] x[157] </args>
      <args> x[146] x[167] </args>
      <args> x[146] x[60] </args>
      <args> x[146] x[96] </args>
      <args> x[126] x[147] </args>
      <args> x[147] x[16] </args>
      <args> x[147] x[94] </args>
      <args> x[144] x[148] </args>
      <args> x[148] x[155] </args>
      <args> x[148] x[160] </args>
      <args> x[148] x[17] </args>
      <args> x[148] x[21] </args>
      <args> x[148] x[28] </args>
      <args> x[148] x[61] </args>
      <args> x[131] x[149] </args>
      <args> x[149] x[23] </args>
      <args> x[149] x[24] </args>
      <args> x[149] x[38] </args>
      <args> x[149] x[86] </args>
      <args> x[106] x[15] </args>
      <args> x[151] x[15] </args>
      <args> x[15] x[4] </args>
      <args> x[15] x[40] </args>
      <args> x[15] x[73] </args>
      <args> x[120] x[150] </args>
      <args> x[142] x[150] </args>
      <args> x[150] x[19] </args>
      <args> x[106] x[151] </args>
      <args> x[115] x[151] </args>
      <args> x[151] x[152] </args>
      <args> x[151] x[40] </args>
      <args> x[151] x[73] </args>
      <args> x[152] x[4] </args>
      <args> x[152] x[40] </args>
      <args> x[152] x[73] </args>
      <args> x[153] x[33] </args>
      <args> x[153] x[35] </args>
      <args> x[111] x[154] </args>
      <args> x[132] x[154] </args>
      <args> x[154] x[20] </args>
      <args> x[155] x[51] </args>
      <args> x[156] x[167] </args>
      <args> x[156] x[44] </args>
      <args> x[156] x[60] </args>
      <args> x[115] x[158] </args>
      <args> x[142] x[159] </args>
      <args> x[165] x[16] </args>
      <args> x[16] x[64] </args>
      <args> x[160] x[17] </args>
      <args> x[107] x[162] </args>
      <args> x[11] x[162] </args>
      <args> x[139] x[162] </args>
      <args> x[163] x[1] </args>
      <args> x[112] x[163] </args>
      <args> x[130] x[163] </args>
      <args> x[139] x[163] </args>
      <args> x[143] x[163] </args>
      <args> x[163] x[5] </args>
      <args> x[163] x[7] </args>
      <args> x[133] x[164] </args>
      <args> x[131] x[166] </args>
      <args> x[166] x[23] </args>
      <args> x[166] x[45] </args>
      <args> x[166] x[86] </args>
      <args> x[168] x[17] </args>
      <args> x[168] x[21] </args>
      <args> x[168] x[51] </args>
      <args> x[168] x[70] </args>
      <args> x[17] x[21] </args>
      <args> x[17] x[28] </args>
      <args> x[120] x[19] </args>
      <args> x[134] x[19] </args>
      <args> x[142] x[19] </args>
      <args> x[161] x[2] </args>
      <args> x[164] x[2] </args>
      <args> x[2] x[88] </args>
      <args> x[23] x[24] </args>
      <args> x[23] x[38] </args>
      <args> x[24] x[86] </args>
      <args> x[26] x[97] </args>
      <args> x[123] x[27] </args>
      <args> x[132] x[27] </args>
      <args> x[20] x[27] </args>
      <args> x[119] x[29] </args>
      <args> x[127] x[29] </args>
      <args> x[116] x[3] </args>
      <args> x[131] x[3] </args>
      <args> x[166] x[3] </args>
      <args> x[38] x[3] </args>
      <args> x[3] x[45] </args>
      <args> x[30] x[33] </args>
      <args> x[30] x[36] </args>
      <args> x[109] x[31] </args>
      <args> x[117] x[31] </args>
      <args> x[31] x[37] </args>
      <args> x[31] x[42] </args>
      <args> x[31] x[76] </args>
      <args> x[31] x[80] </args>
      <args> x[31] x[98] </args>
      <args> x[120] x[32] </args>
      <args> x[142] x[32] </args>
      <args> x[19] x[32] </args>
      <args> x[133] x[34] </args>
      <args> x[2] x[34] </args>
      <args> x[22] x[36] </args>
      <args> x[33] x[36] </args>
      <args> x[35] x[36] </args>
      <args> x[101] x[37] </args>
      <args> x[110] x[37] </args>
      <args> x[129] x[37] </args>
      <args> x[37] x[98] </args>
      <args> x[135] x[38] </args>
      <args> x[111] x[39] </args>
      <args> x[123] x[39] </args>
      <args> x[106] x[4] </args>
      <args> x[41] x[97] </args>
      <args> x[114] x[43] </args>
      <args> x[118] x[43] </args>
      <args> x[153] x[43] </args>
      <args> x[30] x[43] </args>
      <args> x[36] x[43] </args>
      <args> x[43] x[85] </args>
      <args> x[167] x[44] </args>
      <args> x[24] x[45] </args>
      <args> x[137] x[46] </args>
      <args> x[146] x[46] </args>
      <args> x[156] x[46] </args>
      <args> x[157] x[46] </args>
      <args> x[167] x[46] </args>
      <args> x[44] x[46] </args>
      <args> x[46] x[60] </args>
      <args> x[46] x[78] </args>
      <args> x[28] x[47] </args>
      <args> x[47] x[51] </args>
      <args> x[47] x[61] </args>
      <args> x[47] x[70] </args>
      <args> x[14] x[48] </args>
      <args> x[26] x[48] </args>
      <args> x[48] x[53] </args>
      <args> x[48] x[97] </args>
      <args> x[112] x[5] </args>
      <args> x[143] x[5] </args>
      <args> x[26] x[53] </args>
      <args> x[41] x[53] </args>
      <args> x[133] x[54] </args>
      <args> x[136] x[54] </args>
      <args> x[161] x[54] </args>
      <args> x[164] x[54] </args>
      <args> x[2] x[54] </args>
      <args> x[34] x[54] </args>
      <args> x[54] x[66] </args>
      <args> x[54] x[8] </args>
      <args> x[54] x[88] </args>
      <args> x[120] x[58] </args>
      <args> x[122] x[58] </args>
      <args> x[159] x[58] </args>
      <args> x[26] x[59] </args>
      <args> x[41] x[59] </args>
      <args> x[157] x[60] </args>
      <args> x[167] x[60] </args>
      <args> x[160] x[61] </args>
      <args> x[21] x[61] </args>
      <args> x[28] x[61] </args>
      <args> x[118] x[62] </args>
      <args> x[153] x[62] </args>
      <args> x[30] x[62] </args>
      <args> x[33] x[62] </args>
      <args> x[147] x[63] </args>
      <args> x[16] x[63] </args>
      <args> x[63] x[64] </args>
      <args> x[63] x[94] </args>
      <args> x[126] x[64] </args>
      <args> x[133] x[66] </args>
      <args> x[164] x[66] </args>
      <args> x[66] x[88] </args>
      <args> x[109] x[67] </args>
      <args> x[110] x[67] </args>
      <args> x[37] x[67] </args>
      <args> x[42] x[67] </args>
      <args> x[26] x[68] </args>
      <args> x[53] x[68] </args>
      <args> x[59] x[68] </args>
      <args> x[107] x[7] </args>
      <args> x[11] x[7] </args>
      <args> x[112] x[7] </args>
      <args> x[130] x[7] </args>
      <args> x[139] x[7] </args>
      <args> x[143] x[7] </args>
      <args> x[160] x[70] </args>
      <args> x[21] x[70] </args>
      <args> x[28] x[70] </args>
      <args> x[51] x[70] </args>
      <args> x[10] x[71] </args>
      <args> x[123] x[71] </args>
      <args> x[132] x[71] </args>
      <args> x[20] x[71] </args>
      <args> x[133] x[72] </args>
      <args> x[161] x[72] </args>
      <args> x[164] x[72] </args>
      <args> x[66] x[72] </args>
      <args> x[72] x[88] </args>
      <args> x[40] x[73] </args>
      <args> x[103] x[74] </args>
      <args> x[137] x[74] </args>
      <args> x[46] x[74] </args>
      <args> x[60] x[74] </args>
      <args> x[101] x[76] </args>
      <args> x[42] x[76] </args>
      <args> x[76] x[98] </args>
      <args> x[13] x[77] </args>
      <args> x[50] x[77] </args>
      <args> x[157] x[78] </args>
      <args> x[60] x[78] </args>
      <args> x[14] x[79] </args>
      <args> x[26] x[79] </args>
      <args> x[41] x[79] </args>
      <args> x[48] x[79] </args>
      <args> x[161] x[8] </args>
      <args> x[164] x[8] </args>
      <args> x[34] x[8] </args>
      <args> x[42] x[80] </args>
      <args> x[0] x[82] </args>
      <args> x[126] x[82] </args>
      <args> x[147] x[82] </args>
      <args> x[16] x[82] </args>
      <args> x[64] x[82] </args>
      <args> x[82] x[83] </args>
      <args> x[82] x[94] </args>
      <args> x[0] x[83] </args>
      <args> x[121] x[83] </args>
      <args> x[126] x[83] </args>
      <args> x[147] x[83] </args>
      <args> x[16] x[83] </args>
      <args> x[165] x[83] </args>
      <args> x[63] x[83] </args>
      <args> x[64] x[83] </args>
      <args> x[75] x[83] </args>
      <args> x[83] x[94] </args>
      <args> x[119] x[84] </args>
      <args> x[12] x[84] </args>
      <args> x[77] x[84] </args>
      <args> x[118] x[85] </args>
      <args> x[153] x[85] </args>
      <args> x[22] x[85] </args>
      <args> x[33] x[85] </args>
      <args> x[35] x[85] </args>
      <args> x[36] x[85] </args>
      <args> x[111] x[87] </args>
      <args> x[133] x[88] </args>
      <args> x[106] x[9] </args>
      <args> x[115] x[9] </args>
      <args> x[138] x[9] </args>
      <args> x[15] x[9] </args>
      <args> x[151] x[9] </args>
      <args> x[152] x[9] </args>
      <args> x[4] x[9] </args>
      <args> x[40] x[9] </args>
      <args> x[131] x[90] </args>
      <args> x[149] x[90] </args>
      <args> x[24] x[90] </args>
      <args> x[14] x[91] </args>
      <args> x[141] x[91] </args>
      <args> x[79] x[91] </args>
      <args> x[91] x[92] </args>
      <args> x[91] x[95] </args>
      <args> x[91] x[97] </args>
      <args> x[141] x[92] </args>
      <args> x[26] x[92] </args>
      <args> x[48] x[92] </args>
      <args> x[53] x[92] </args>
      <args> x[142] x[93] </args>
      <args> x[159] x[93] </args>
      <args> x[32] x[93] </args>
      <args> x[126] x[94] </args>
      <args> x[16] x[94] </args>
      <args> x[75] x[94] </args>
      <args> x[26] x[95] </args>
      <args> x[41] x[95] </args>
      <args> x[53] x[95] </args>
      <args> x[59] x[95] </args>
      <args> x[79] x[95] </args>
      <args> x[95] x[97] </args>
      <args> x[44] x[96] </args>
      <args> x[136] x[99] </args>
      <args> x[161] x[99] </args>
      <args> x[164] x[99] </args>
      <args> x[34] x[99] </args>
      <args> x[54] x[99] </args>
      <args> x[88] x[99] </args>
    </group>
    <group>
      <extension>
        <list> %0 %1 </list>
        <conflicts> (0,0)(1,1)(2,2)(3,3)(4,4)(5,5)(6,6)(7,7)(8,8)(9,9)(10,10)(11,11)(12,12) </conflicts>
      </extension>
      <args> x[0] x[75] </args>
      <args> x[11] x[1] </args>
      <args> x[112] x[1] </args>
      <args> x[139] x[1] </args>
      <args> x[100] x[10] </args>
      <args> x[10] x[132] </args>
      <args> x[10] x[154] </args>
      <args> x[10] x[87] </args>
      <args> x[100] x[111] </args>
      <args> x[100] x[20] </args>
      <args> x[100] x[87] </args>
      <args> x[101] x[42] </args>
      <args> x[101] x[80] </args>
      <args> x[101] x[98] </args>
      <args> x[102] x[104] </args>
      <args> x[102] x[119] </args>
      <args> x[102] x[12] </args>
      <args> x[102] x[13] </args>
      <args> x[102] x[29] </args>
      <args> x[103] x[137] </args>
      <args> x[103] x[157] </args>
      <args> x[104] x[12] </args>
      <args> x[105] x[120] </args>
      <args> x[105] x[142] </args>
      <args> x[105] x[150] </args>
      <args> x[105] x[159] </args>
      <args> x[105] x[58] </args>
      <args> x[107] x[11] </args>
      <args> x[107] x[139] </args>
      <args> x[108] x[138] </args>
      <args> x[108] x[151] </args>
      <args> x[108] x[4] </args>
      <args> x[108] x[40] </args>
      <args> x[101] x[109] </args>
      <args> x[109] x[110] </args>
      <args> x[109] x[117] </args>
      <args> x[109] x[37] </args>
      <args> x[109] x[98] </args>
      <args> x[11] x[130] </args>
      <args> x[11] x[139] </args>
      <args> x[113] x[1] </args>
      <args> x[107] x[113] </args>
      <args> x[112] x[113] </args>
      <args> x[113] x[7] </args>
      <args> x[114] x[118] </args>
      <args> x[114] x[124] </args>
      <args> x[114] x[153] </args>
      <args> x[114] x[30] </args>
      <args> x[114] x[35] </args>
      <args> x[114] x[36] </args>
      <args> x[114] x[62] </args>
      <args> x[116] x[131] </args>
      <args> x[116] x[23] </args>
      <args> x[116] x[24] </args>
      <args> x[116] x[38] </args>
      <args> x[116] x[45] </args>
      <args> x[116] x[86] </args>
      <args> x[110] x[117] </args>
      <args> x[117] x[42] </args>
      <args> x[117] x[98] </args>
      <args> x[118] x[22] </args>
      <args> x[119] x[12] </args>
      <args> x[12] x[29] </args>
      <args> x[121] x[147] </args>
      <args> x[121] x[64] </args>
      <args> x[121] x[94] </args>
      <args> x[122] x[159] </args>
      <args> x[122] x[32] </args>
      <args> x[123] x[132] </args>
      <args> x[123] x[154] </args>
      <args> x[123] x[87] </args>
      <args> x[118] x[124] </args>
      <args> x[124] x[36] </args>
      <args> x[120] x[125] </args>
      <args> x[122] x[125] </args>
      <args> x[125] x[134] </args>
      <args> x[125] x[150] </args>
      <args> x[125] x[19] </args>
      <args> x[125] x[58] </args>
      <args> x[126] x[75] </args>
      <args> x[102] x[128] </args>
      <args> x[104] x[128] </args>
      <args> x[119] x[128] </args>
      <args> x[127] x[128] </args>
      <args> x[128] x[77] </args>
      <args> x[129] x[42] </args>
      <args> x[129] x[80] </args>
      <args> x[127] x[13] </args>
      <args> x[130] x[139] </args>
      <args> x[131] x[24] </args>
      <args> x[131] x[38] </args>
      <args> x[131] x[45] </args>
      <args> x[100] x[132] </args>
      <args> x[111] x[132] </args>
      <args> x[134] x[159] </args>
      <args> x[135] x[86] </args>
      <args> x[133] x[136] </args>
      <args> x[136] x[164] </args>
      <args> x[136] x[8] </args>
      <args> x[137] x[44] </args>
      <args> x[137] x[96] </args>
      <args> x[106] x[138] </args>
      <args> x[138] x[151] </args>
      <args> x[138] x[152] </args>
      <args> x[138] x[158] </args>
      <args> x[138] x[4] </args>
      <args> x[138] x[40] </args>
      <args> x[14] x[53] </args>
      <args> x[14] x[59] </args>
      <args> x[14] x[97] </args>
      <args> x[10] x[140] </args>
      <args> x[111] x[140] </args>
      <args> x[140] x[20] </args>
      <args> x[141] x[41] </args>
      <args> x[141] x[48] </args>
      <args> x[141] x[53] </args>
      <args> x[141] x[59] </args>
      <args> x[141] x[79] </args>
      <args> x[141] x[95] </args>
      <args> x[120] x[142] </args>
      <args> x[143] x[1] </args>
      <args> x[11] x[143] </args>
      <args> x[112] x[143] </args>
      <args> x[139] x[143] </args>
      <args> x[144] x[155] </args>
      <args> x[144] x[160] </args>
      <args> x[144] x[61] </args>
      <args> x[104] x[145] </args>
      <args> x[12] x[145] </args>
      <args> x[13] x[145] </args>
      <args> x[137] x[146] </args>
      <args> x[146] x[156] </args>
      <args> x[146] x[44] </args>
      <args> x[146] x[78] </args>
      <args> x[0] x[147] </args>
      <args> x[147] x[165] </args>
      <args> x[147] x[64] </args>
      <args> x[147] x[75] </args>
      <args> x[148] x[168] </args>
      <args> x[148] x[47] </args>
      <args> x[148] x[51] </args>
      <args> x[148] x[70] </args>
      <args> x[135] x[149] </args>
      <args> x[149] x[45] </args>
      <args> x[115] x[15] </args>
      <args> x[138] x[15] </args>
      <args> x[152] x[15] </args>
      <args> x[158] x[15] </args>
      <args> x[122] x[150] </args>
      <args> x[134] x[150] </args>
      <args> x[150] x[159] </args>
      <args> x[150] x[32] </args>
      <args> x[151] x[4] </args>
      <args> x[106] x[152] </args>
      <args> x[115] x[152] </args>
      <args> x[100] x[154] </args>
      <args> x[154] x[87] </args>
      <args> x[155] x[160] </args>
      <args> x[155] x[17] </args>
      <args> x[155] x[21] </args>
      <args> x[155] x[28] </args>
      <args> x[155] x[61] </args>
      <args> x[155] x[70] </args>
      <args> x[156] x[157] </args>
      <args> x[157] x[167] </args>
      <args> x[106] x[158] </args>
      <args> x[151] x[158] </args>
      <args> x[152] x[158] </args>
      <args> x[158] x[4] </args>
      <args> x[158] x[40] </args>
      <args> x[158] x[73] </args>
      <args> x[120] x[159] </args>
      <args> x[126] x[16] </args>
      <args> x[16] x[75] </args>
      <args> x[160] x[21] </args>
      <args> x[160] x[28] </args>
      <args> x[160] x[51] </args>
      <args> x[162] x[1] </args>
      <args> x[112] x[162] </args>
      <args> x[130] x[162] </args>
      <args> x[143] x[162] </args>
      <args> x[162] x[5] </args>
      <args> x[162] x[7] </args>
      <args> x[107] x[163] </args>
      <args> x[11] x[163] </args>
      <args> x[113] x[163] </args>
      <args> x[162] x[163] </args>
      <args> x[161] x[164] </args>
      <args> x[126] x[165] </args>
      <args> x[165] x[64] </args>
      <args> x[165] x[75] </args>
      <args> x[116] x[166] </args>
      <args> x[135] x[166] </args>
      <args> x[149] x[166] </args>
      <args> x[166] x[24] </args>
      <args> x[166] x[38] </args>
      <args> x[166] x[90] </args>
      <args> x[155] x[168] </args>
      <args> x[160] x[168] </args>
      <args> x[168] x[28] </args>
      <args> x[168] x[61] </args>
      <args> x[159] x[19] </args>
      <args> x[133] x[2] </args>
      <args> x[2] x[66] </args>
      <args> x[2] x[72] </args>
      <args> x[111] x[20] </args>
      <args> x[153] x[22] </args>
      <args> x[22] x[33] </args>
      <args> x[22] x[35] </args>
      <args> x[131] x[23] </args>
      <args> x[135] x[23] </args>
      <args> x[23] x[45] </args>
      <args> x[23] x[86] </args>
      <args> x[26] x[41] </args>
      <args> x[10] x[27] </args>
      <args> x[100] x[27] </args>
      <args> x[111] x[27] </args>
      <args> x[154] x[27] </args>
      <args> x[27] x[39] </args>
      <args> x[27] x[87] </args>
      <args> x[21] x[28] </args>
      <args> x[135] x[3] </args>
      <args> x[149] x[3] </args>
      <args> x[23] x[3] </args>
      <args> x[24] x[3] </args>
      <args> x[3] x[86] </args>
      <args> x[3] x[90] </args>
      <args> x[153] x[30] </args>
      <args> x[22] x[30] </args>
      <args> x[30] x[35] </args>
      <args> x[101] x[31] </args>
      <args> x[110] x[31] </args>
      <args> x[129] x[31] </args>
      <args> x[31] x[67] </args>
      <args> x[134] x[32] </args>
      <args> x[159] x[32] </args>
      <args> x[161] x[34] </args>
      <args> x[164] x[34] </args>
      <args> x[34] x[66] </args>
      <args> x[34] x[72] </args>
      <args> x[34] x[88] </args>
      <args> x[33] x[35] </args>
      <args> x[153] x[36] </args>
      <args> x[117] x[37] </args>
      <args> x[37] x[42] </args>
      <args> x[37] x[80] </args>
      <args> x[24] x[38] </args>
      <args> x[38] x[45] </args>
      <args> x[38] x[86] </args>
      <args> x[10] x[39] </args>
      <args> x[100] x[39] </args>
      <args> x[132] x[39] </args>
      <args> x[154] x[39] </args>
      <args> x[20] x[39] </args>
      <args> x[39] x[87] </args>
      <args> x[115] x[4] </args>
      <args> x[40] x[4] </args>
      <args> x[4] x[73] </args>
      <args> x[115] x[40] </args>
      <args> x[124] x[43] </args>
      <args> x[22] x[43] </args>
      <args> x[33] x[43] </args>
      <args> x[35] x[43] </args>
      <args> x[43] x[62] </args>
      <args> x[157] x[44] </args>
      <args> x[44] x[60] </args>
      <args> x[45] x[86] </args>
      <args> x[46] x[96] </args>
      <args> x[155] x[47] </args>
      <args> x[160] x[47] </args>
      <args> x[168] x[47] </args>
      <args> x[17] x[47] </args>
      <args> x[21] x[47] </args>
      <args> x[41] x[48] </args>
      <args> x[48] x[59] </args>
      <args> x[48] x[68] </args>
      <args> x[1] x[5] </args>
      <args> x[107] x[5] </args>
      <args> x[11] x[5] </args>
      <args> x[130] x[5] </args>
      <args> x[139] x[5] </args>
      <args> x[5] x[7] </args>
      <args> x[104] x[50] </args>
      <args> x[119] x[50] </args>
      <args> x[12] x[50] </args>
      <args> x[127] x[50] </args>
      <args> x[13] x[50] </args>
      <args> x[29] x[50] </args>
      <args> x[17] x[51] </args>
      <args> x[21] x[51] </args>
      <args> x[28] x[51] </args>
      <args> x[53] x[59] </args>
      <args> x[53] x[97] </args>
      <args> x[54] x[72] </args>
      <args> x[134] x[58] </args>
      <args> x[142] x[58] </args>
      <args> x[150] x[58] </args>
      <args> x[19] x[58] </args>
      <args> x[32] x[58] </args>
      <args> x[59] x[97] </args>
      <args> x[17] x[61] </args>
      <args> x[51] x[61] </args>
      <args> x[22] x[62] </args>
      <args> x[35] x[62] </args>
      <args> x[36] x[62] </args>
      <args> x[0] x[63] </args>
      <args> x[121] x[63] </args>
      <args> x[126] x[63] </args>
      <args> x[165] x[63] </args>
      <args> x[63] x[75] </args>
      <args> x[64] x[75] </args>
      <args> x[161] x[66] </args>
      <args> x[101] x[67] </args>
      <args> x[117] x[67] </args>
      <args> x[129] x[67] </args>
      <args> x[67] x[80] </args>
      <args> x[67] x[98] </args>
      <args> x[41] x[68] </args>
      <args> x[68] x[97] </args>
      <args> x[1] x[7] </args>
      <args> x[17] x[70] </args>
      <args> x[61] x[70] </args>
      <args> x[100] x[71] </args>
      <args> x[111] x[71] </args>
      <args> x[154] x[71] </args>
      <args> x[27] x[71] </args>
      <args> x[39] x[71] </args>
      <args> x[71] x[87] </args>
      <args> x[115] x[73] </args>
      <args> x[146] x[74] </args>
      <args> x[156] x[74] </args>
      <args> x[157] x[74] </args>
      <args> x[167] x[74] </args>
      <args> x[44] x[74] </args>
      <args> x[74] x[78] </args>
      <args> x[74] x[96] </args>
      <args> x[109] x[76] </args>
      <args> x[110] x[76] </args>
      <args> x[117] x[76] </args>
      <args> x[129] x[76] </args>
      <args> x[37] x[76] </args>
      <args> x[67] x[76] </args>
      <args> x[76] x[80] </args>
      <args> x[102] x[77] </args>
      <args> x[104] x[77] </args>
      <args> x[119] x[77] </args>
      <args> x[12] x[77] </args>
      <args> x[127] x[77] </args>
      <args> x[145] x[77] </args>
      <args> x[29] x[77] </args>
      <args> x[156] x[78] </args>
      <args> x[167] x[78] </args>
      <args> x[44] x[78] </args>
      <args> x[53] x[79] </args>
      <args> x[59] x[79] </args>
      <args> x[68] x[79] </args>
      <args> x[79] x[97] </args>
      <args> x[133] x[8] </args>
      <args> x[2] x[8] </args>
      <args> x[66] x[8] </args>
      <args> x[72] x[8] </args>
      <args> x[88] x[8] </args>
      <args> x[80] x[98] </args>
      <args> x[121] x[82] </args>
      <args> x[165] x[82] </args>
      <args> x[63] x[82] </args>
      <args> x[75] x[82] </args>
      <args> x[102] x[84] </args>
      <args> x[104] x[84] </args>
      <args> x[127] x[84] </args>
      <args> x[128] x[84] </args>
      <args> x[13] x[84] </args>
      <args> x[145] x[84] </args>
      <args> x[29] x[84] </args>
      <args> x[50] x[84] </args>
      <args> x[124] x[85] </args>
      <args> x[30] x[85] </args>
      <args> x[62] x[85] </args>
      <args> x[20] x[87] </args>
      <args> x[161] x[88] </args>
      <args> x[164] x[88] </args>
      <args> x[158] x[9] </args>
      <args> x[73] x[9] </args>
      <args> x[135] x[90] </args>
      <args> x[23] x[90] </args>
      <args> x[38] x[90] </args>
      <args> x[45] x[90] </args>
      <args> x[86] x[90] </args>
      <args> x[26] x[91] </args>
      <args> x[41] x[91] </args>
      <args> x[48] x[91] </args>
      <args> x[53] x[91] </args>
      <args> x[59] x[91] </args>
      <args> x[68] x[91] </args>
      <args> x[14] x[92] </args>
      <args> x[41] x[92] </args>
      <args> x[59] x[92] </args>
      <args> x[68] x[92] </args>
      <args> x[79] x[92] </args>
      <args> x[92] x[95] </args>
      <args> x[92] x[97] </args>
      <args> x[105] x[93] </args>
      <args> x[120] x[93] </args>
      <args> x[122] x[93] </args>
      <args> x[125] x[93] </args>
      <args> x[134] x[93] </args>
      <args> x[150] x[93] </args>
      <args> x[19] x[93] </args>
      <args> x[58] x[93] </args>
      <args> x[0] x[94] </args>
      <args> x[165] x[94] </args>
      <args> x[64] x[94] </args>
      <args> x[14] x[95] </args>
      <args> x[48] x[95] </args>
      <args> x[68] x[95] </args>
      <args> x[156] x[96] </args>
      <args> x[157] x[96] </args>
      <args> x[167] x[96] </args>
      <args> x[60] x[96] </args>
      <args> x[78] x[96] </args>
      <args> x[42] x[98] </args>
      <args> x[133] x[99] </args>
      <args> x[2] x[99] </args>
      <args> x[66] x[99] </args>
      <args> x[72] x[99] </args>
      <args> x[8] x[99] </args>
    </group>
    <group>
      <extension>
        <list> %0 %1 </list>
        <supports> (0,0)(1,1)(2,2)(3,3)(4,4)(5,5)(6,6)(7,7)(8,8)(9,9)(10,10)(11,11)(12,12) </supports>
      </extension>
      <args> x[14] x[6] </args>
      <args> x[141] x[25] </args>
      <args> x[26] x[55] </args>
      <args> x[41] x[65] </args>
      <args> x[18] x[48] </args>
      <args> x[53] x[81] </args>
      <args> x[57] x[59] </args>
      <args> x[49] x[68] </args>
      <args> x[69] x[79] </args>
      <args> x[52] x[91] </args>
      <args> x[89] x[92] </args>
      <args> x[56] x[95] </args>
    </group>
    <group>
      <extension>
        <list> %0 %1 </list>
        <conflicts> (0,0)(1,0)(0,1)(1,1)(2,2)(3,3)(4,4)(5,5)(6,6)(7,7)(8,8)(9,9)(10,10)(11,11)(12,12) </conflicts>
      </extension>
      <args> x[102] x[18] </args>
      <args> x[104] x[18] </args>
      <args> x[119] x[18] </args>
      <args> x[12] x[18] </args>
      <args> x[127] x[18] </args>
      <args> x[128] x[18] </args>
      <args> x[13] x[18] </args>
      <args> x[145] x[18] </args>
      <args> x[18] x[29] </args>
      <args> x[18] x[50] </args>
      <args> x[18] x[77] </args>
      <args> x[18] x[84] </args>
      <args> x[103] x[25] </args>
      <args> x[137] x[25] </args>
      <args> x[146] x[25] </args>
      <args> x[156] x[25] </args>
      <args> x[157] x[25] </args>
      <args> x[167] x[25] </args>
      <args> x[25] x[44] </args>
      <args> x[25] x[46] </args>
      <args> x[25] x[60] </args>
      <args> x[25] x[74] </args>
      <args> x[25] x[78] </args>
      <args> x[25] x[96] </args>
      <args> x[105] x[49] </args>
      <args> x[120] x[49] </args>
      <args> x[122] x[49] </args>
      <args> x[125] x[49] </args>
      <args> x[134] x[49] </args>
      <args> x[142] x[49] </args>
      <args> x[150] x[49] </args>
      <args> x[159] x[49] </args>
      <args> x[19] x[49] </args>
      <args> x[32] x[49] </args>
      <args> x[49] x[58] </args>
      <args> x[49] x[93] </args>
      <args> x[133] x[52] </args>
      <args> x[136] x[52] </args>
      <args> x[161] x[52] </args>
      <args> x[164] x[52] </args>
      <args> x[2] x[52] </args>
      <args> x[34] x[52] </args>
      <args> x[52] x[54] </args>
      <args> x[52] x[66] </args>
      <args> x[52] x[72] </args>
      <args> x[52] x[8] </args>
      <args> x[52] x[88] </args>
      <args> x[52] x[99] </args>
      <args> x[144] x[55] </args>
      <args> x[148] x[55] </args>
      <args> x[155] x[55] </args>
      <args> x[160] x[55] </args>
      <args> x[168] x[55] </args>
      <args> x[17] x[55] </args>
      <args> x[21] x[55] </args>
      <args> x[28] x[55] </args>
      <args> x[47] x[55] </args>
      <args> x[51] x[55] </args>
      <args> x[55] x[61] </args>
      <args> x[55] x[70] </args>
      <args> x[10] x[56] </args>
      <args> x[100] x[56] </args>
      <args> x[111] x[56] </args>
      <args> x[123] x[56] </args>
      <args> x[132] x[56] </args>
      <args> x[140] x[56] </args>
      <args> x[154] x[56] </args>
      <args> x[20] x[56] </args>
      <args> x[27] x[56] </args>
      <args> x[39] x[56] </args>
      <args> x[56] x[71] </args>
      <args> x[56] x[87] </args>
      <args> x[116] x[57] </args>
      <args> x[131] x[57] </args>
      <args> x[135] x[57] </args>
      <args> x[149] x[57] </args>
      <args> x[166] x[57] </args>
      <args> x[23] x[57] </args>
      <args> x[24] x[57] </args>
      <args> x[3] x[57] </args>
      <args> x[38] x[57] </args>
      <args> x[45] x[57] </args>
      <args> x[57] x[86] </args>
      <args> x[57] x[90] </args>
      <args> x[101] x[6] </args>
      <args> x[109] x[6] </args>
      <args> x[110] x[6] </args>
      <args> x[117] x[6] </args>
      <args> x[129] x[6] </args>
      <args> x[31] x[6] </args>
      <args> x[37] x[6] </args>
      <args> x[42] x[6] </args>
      <args> x[67] x[6] </args>
      <args> x[6] x[76] </args>
      <args> x[6] x[80] </args>
      <args> x[6] x[98] </args>
      <args> x[1] x[65] </args>
      <args> x[107] x[65] </args>
      <args> x[11] x[65] </args>
      <args> x[112] x[65] </args>
      <args> x[113] x[65] </args>
      <args> x[130] x[65] </args>
      <args> x[139] x[65] </args>
      <args> x[143] x[65] </args>
      <args> x[162] x[65] </args>
      <args> x[163] x[65] </args>
      <args> x[5] x[65] </args>
      <args> x[65] x[7] </args>
      <args> x[0] x[69] </args>
      <args> x[121] x[69] </args>
      <args> x[126] x[69] </args>
      <args> x[147] x[69] </args>
      <args> x[16] x[69] </args>
      <args> x[165] x[69] </args>
      <args> x[63] x[69] </args>
      <args> x[64] x[69] </args>
      <args> x[69] x[75] </args>
      <args> x[69] x[82] </args>
      <args> x[69] x[83] </args>
      <args> x[69] x[94] </args>
      <args> x[106] x[81] </args>
      <args> x[108] x[81] </args>
      <args> x[115] x[81] </args>
      <args> x[138] x[81] </args>
      <args> x[15] x[81] </args>
      <args> x[151] x[81] </args>
      <args> x[152] x[81] </args>
      <args> x[158] x[81] </args>
      <args> x[4] x[81] </args>
      <args> x[40] x[81] </args>
      <args> x[73] x[81] </args>
      <args> x[81] x[9] </args>
      <args> x[114] x[89] </args>
      <args> x[118] x[89] </args>
      <args> x[124] x[89] </args>
      <args> x[153] x[89] </args>
      <args> x[22] x[89] </args>
      <args> x[30] x[89] </args>
      <args> x[33] x[89] </args>
      <args> x[35] x[89] </args>
      <args> x[36] x[89] </args>
      <args> x[43] x[89] </args>
      <args> x[62] x[89] </args>
      <args> x[85] x[89] </args>
    </group>
  </constraints>
</instance>
